param n := 5;

param p := 0.005;
#0.001
#0.005
#0.015
#0.025
#0.045


param invstd := 2.326347874; #epsilon=0.01

param: LINKS : capacity_P =
		[1,2]		1    	
		[1,3] 		1		
		[2,1]		1    	
		[2,3] 		1		
		[3,1]		1    	
		[3,2] 		1
		[1,4]		1
		[2,4]		1
		[3,4]		1
		[4,1]		1
		[4,2]		1
		[4,3]		1
		[1,5]		1
		[2,5]		1
		[3,5]		1
		[4,5]		1
		[5,1]		1
		[5,2]		1
		[5,3]		1
		[5,4]		1;